sat
(:max-memory         18.52
 :memory             18.42
 :nlsat-arith-var    5
 :nlsat-atoms        18
 :nlsat-bool-var     5
 :nlsat-clauses      6
 :nlsat-conflicts    5
 :nlsat-decisions    1
 :nlsat-propagations 22
 :nlsat-stages       10
 :num-allocs         72984
 :rlimit-count       3538
 :time               0.00
 :total-time         0.01)
